50
21152

480 551
258 225
603 423
287 39
799 333
889 385
108 335
7 296
306 154
590 321
593 905
415 14
200 783
858 801
771 444
844 242
73 674
386 209
748 199
13 872
604 793
170 103
901 724
763 513
178 904
652 652
49 205
993 522
581 208
433 676
186 26
640 531
31 986
325 54
283 980
470 977
404 669
528 988
604 263
522 195
274 501
986 769
195 168
706 696
290 59
554 244
731 991
76 448
660 783
251 868
